\ENCODING=ISO-8859-1
\Problem name: ilog.cplex

Minimize
 obj1: 103120 x1 + 107471 x2 + 101373 x3 + 92850 x4 + 98891 x5 + 101748 x6
       + 93403 x7 + 106574 x8 + 99122 x9 + 105327 x10 + 103774 x11 + 109332 x12
       + 93489 x13 + 102462 x14 + 92121 x15 + 97408 x16 + 99847 x17 + 91074 x18
       + 98813 x19 + 108988 x20 + 95264 x21 + 96357 x22 + 102388 x23
       + 102604 x24 + 95711 x25 + 95948 x26 + 103367 x27 + 97033 x28
       + 92216 x29 + 105589 x30 + 103284 x31 + 94271 x32 + 107248 x33
       + 99680 x34 + 94052 x35 + 95456 x36 + 96681 x37 + 97268 x38 + 94638 x39
       + 108567 x40 + 109891 x41 + 90724 x42 + 109586 x43 + 96266 x44
       + 93370 x45 + 91753 x46 + 97037 x47 + 102429 x48 + 101699 x49
       + 97339 x50 + 102676 x51 + 106713 x52 + 103818 x53 + 96865 x54
       + 100447 x55 + 107935 x56 + 102204 x57 + 90879 x58 + 100861 x59
       + 109075 x60 + 109411 x61 + 95604 x62 + 107609 x63 + 100782 x64
       + 102586 x65 + 108418 x66 + 109801 x67 + 109708 x68 + 93324 x69
       + 96491 x70 + 100369 x71 + 105320 x72 + 100079 x73 + 108560 x74
       + 92750 x75 + 94634 x76 + 106068 x77 + 101329 x78 + 96430 x79
       + 98064 x80 + 96929 x81 + 99439 x82 + 97610 x83 + 97516 x84 + 99707 x85
       + 93872 x86 + 102854 x87 + 94549 x88 + 94866 x89 + 96912 x90 + 97447 x91
       + 102750 x92 + 90758 x93 + 97732 x94 + 105697 x95 + 94737 x96
       + 108243 x97 + 94279 x98 + 106518 x99 + 96112 x100 + 102087 x101
       + 94306 x102 + 94376 x103 + 106173 x104 + 105334 x105 + 101273 x106
       + 103035 x107 + 108375 x108 + 102999 x109 + 109251 x110 + 107536 x111
       + 92283 x112 + 102241 x113 + 105081 x114 + 108460 x115 + 103149 x116
       + 107609 x117 + 95725 x118 + 101737 x119 + 105268 x120 + 90930 x121
       + 96553 x122 + 107584 x123 + 109291 x124 + 108028 x125 + 96372 x126
       + 90116 x127 + 95302 x128 + 96286 x129 + 92138 x130 + 100750 x131
       + 96584 x132 + 94603 x133 + 93181 x134 + 99679 x135 + 92625 x136
       + 90140 x137 + 101987 x138 + 105942 x139 + 99201 x140 + 103544 x141
       + 96298 x142 + 100244 x143 + 96258 x144 + 104113 x145 + 91284 x146
       + 100984 x147 + 95191 x148 + 103705 x149 + 91333 x150 + 101921 x151
       + 100059 x152 + 108866 x153 + 108668 x154 + 95880 x155 + 102791 x156
       + 96881 x157 + 94318 x158 + 90451 x159 + 108521 x160 + 103401 x161
       + 95880 x162 + 108878 x163 + 93951 x164 + 106759 x165 + 106066 x166
       + 102143 x167 + 98998 x168 + 107278 x169 + 96220 x170 + 96706 x171
       + 99965 x172 + 108631 x173 + 99754 x174 + 106466 x175 + 91089 x176
       + 92686 x177 + 101913 x178 + 107190 x179 + 90568 x180 + 107014 x181
       + 98345 x182 + 105437 x183 + 107470 x184 + 92794 x185 + 91810 x186
       + 91281 x187 + 96457 x188 + 91798 x189 + 92170 x190 + 104916 x191
       + 105999 x192 + 100949 x193 + 103904 x194 + 97436 x195 + 106461 x196
       + 107108 x197 + 94659 x198 + 98639 x199 + 91532 x200 + 94015 x201
       + 95582 x202 + 101221 x203 + 97804 x204 + 97554 x205 + 99962 x206
       + 108796 x207 + 97322 x208 + 101808 x209 + 94300 x210 + 95115 x211
       + 101872 x212 + 93297 x213 + 96580 x214 + 99491 x215 + 103703 x216
       + 106235 x217 + 92797 x218 + 101775 x219 + 108950 x220 + 97777 x221
       + 94642 x222 + 99135 x223 + 97288 x224 + 108961 x225 + 108843 x226
       + 106445 x227 + 104100 x228 + 94406 x229 + 91722 x230 + 102271 x231
       + 109966 x232 + 101827 x233 + 101365 x234 + 103227 x235 + 96330 x236
       + 91037 x237 + 94149 x238 + 90930 x239 + 105907 x240 + 91743 x241
       + 106054 x242 + 95752 x243 + 100588 x244 + 109783 x245 + 93539 x246
       + 109461 x247 + 94084 x248 + 106378 x249 + 104898 x250 + 101006 x251
       + 100793 x252 + 94403 x253 + 100670 x254 + 107345 x255 + 97666 x256
       + 99437 x257 + 100859 x258 + 104528 x259 + 105560 x260 + 90966 x261
       + 105806 x262 + 94549 x263 + 93177 x264 + 92614 x265 + 98972 x266
       + 103867 x267 + 93598 x268 + 90135 x269 + 96941 x270 + 93041 x271
       + 98579 x272 + 106220 x273 + 106831 x274 + 107562 x275 + 103443 x276
       + 107138 x277 + 96759 x278 + 106242 x279 + 103718 x280 + 107807 x281
       + 101161 x282 + 105393 x283 + 93592 x284 + 109094 x285 + 109459 x286
       + 94572 x287 + 105793 x288 + 93995 x289 + 103973 x290 + 92809 x291
       + 102704 x292 + 107769 x293 + 100940 x294 + 102986 x295 + 99304 x296
       + 91215 x297 + 107118 x298 + 106456 x299 + 52787 x300 + 200768 x301
       + 185820 x302 + 199342 x303 + 210194 x304 + 213808 x305 + 215970 x306
       + 212234 x307 + 182390 x308 + 187042 x309 + 201767 x310 + 212376 x311
       + 214854 x312 + 208451 x313 + 183684 x314 + 201741 x315 + 208869 x316
       + 208848 x317 + 199680 x318 + 203967 x319 + 209546 x320 + 216452 x321
       + 187768 x322 + 209116 x323 + 208256 x324 + 204711 x325 + 212523 x326
       + 194396 x327 + 208726 x328 + 206696 x329 + 199688 x330 + 209188 x331
       + 215835 x332 + 200390 x333 + 186214 x334 + 190601 x335 + 181174 x336
       + 203891 x337 + 189960 x338 + 217346 x339 + 208222 x340 + 218065 x341
       + 213977 x342 + 195090 x343 + 202532 x344 + 196369 x345 + 184686 x346
       + 215562 x347 + 208624 x348 + 187567 x349 + 181436 x350 + 204500 x351
       + 185279 x352 + 186789 x353 + 186841 x354 + 210174 x355 + 214781 x356
       + 203846 x357 + 212958 x358 + 184533 x359 + 93887 x360
Subject To
 c1:   - x2 - x5 - x12 - x27 - x28 + x39 + x48 - x54 - x56  = 0
 c2:   - x62 - x65 - x72 - x87 - x88 + x99 + x108 - x114 - x116  = 0
 c3:   - x122 - x125 - x132 - x147 - x148 + x159 + x168 - x174 - x176  = 0
 c4:   - x182 - x185 - x192 - x207 - x208 + x219 + x228 - x234 - x236  = 0
 c5:   - x242 - x245 - x252 - x267 - x268 + x279 + x288 - x294 - x296  = 0
 c6:   x15 - x16 + x26 + x49 - x50 - x53 + x54  = 0
 c7:   x75 - x76 + x86 + x109 - x110 - x113 + x114  = 1
 c8:   x135 - x136 + x146 + x169 - x170 - x173 + x174  = 0
 c9:   x195 - x196 + x206 + x229 - x230 - x233 + x234  = 0
 c10:  x255 - x256 + x266 + x289 - x290 - x293 + x294  = 0
 c11:  - x26 - x30 + x43 - x58  = 0
 c12:  - x86 - x90 + x103 - x118  = 0
 c13:  - x146 - x150 + x163 - x178  = 0
 c14:  - x206 - x210 + x223 - x238  = 0
 c15:  - x266 - x270 + x283 - x298  = 0
 c16:  x4 - x13 + x21 + x38 + x44 + x46 + x60  = 0
 c17:  x64 - x73 + x81 + x98 + x104 + x106 + x120  = 0
 c18:  x124 - x133 + x141 + x158 + x164 + x166 + x180  = 0
 c19:  x184 - x193 + x201 + x218 + x224 + x226 + x240  = 0
 c20:  x244 - x253 + x261 + x278 + x284 + x286 + x300  = 0
 c21:  - x15 + x22 - x33 - x36 - x46 + x47 - x48  = 0
 c22:  - x75 + x82 - x93 - x96 - x106 + x107 - x108  = 0
 c23:  - x135 + x142 - x153 - x156 - x166 + x167 - x168  = 0
 c24:  - x195 + x202 - x213 - x216 - x226 + x227 - x228  = 0
 c25:  - x255 + x262 - x273 - x276 - x286 + x287 - x288  = 0
 c26:  x3 + x7 - x9 - x14 - x20 - x22 + x52  = 0
 c27:  x63 + x67 - x69 - x74 - x80 - x82 + x112  = 0
 c28:  x123 + x127 - x129 - x134 - x140 - x142 + x172  = 0
 c29:  x183 + x187 - x189 - x194 - x200 - x202 + x232  = 0
 c30:  x243 + x247 - x249 - x254 - x260 - x262 + x292  = -1
 c31:  x2 - x4 + x30 + x41 - x47 - x55  = 0
 c32:  x62 - x64 + x90 + x101 - x107 - x115  = 0
 c33:  x122 - x124 + x150 + x161 - x167 - x175  = 0
 c34:  x182 - x184 + x210 + x221 - x227 - x235  = 0
 c35:  x242 - x244 + x270 + x281 - x287 - x295  = 0
 c36:  - x1 + x6 + x11 + x17 + x18 + x19 + x20 + x28 - x34 + x36 - x42 - x52
        = 1
 c37:  - x61 + x66 + x71 + x77 + x78 + x79 + x80 + x88 - x94 + x96 - x102
       - x112  = 0
 c38:  - x121 + x126 + x131 + x137 + x138 + x139 + x140 + x148 - x154 + x156
       - x162 - x172  = 0
 c39:  - x181 + x186 + x191 + x197 + x198 + x199 + x200 + x208 - x214 + x216
       - x222 - x232  = 0
 c40:  - x241 + x246 + x251 + x257 + x258 + x259 + x260 + x268 - x274 + x276
       - x282 - x292  = 0
 c41:  - x10 + x24 + x32 + x34 + x37 - x43  = 0
 c42:  - x70 + x84 + x92 + x94 + x97 - x103  = 0
 c43:  - x130 + x144 + x152 + x154 + x157 - x163  = 0
 c44:  - x190 + x204 + x212 + x214 + x217 - x223  = 0
 c45:  - x250 + x264 + x272 + x274 + x277 - x283  = 0
 c46:  - x8 + x10 + x40 + x45 - x51 + x53 + x55 + x56  = -1
 c47:  - x68 + x70 + x100 + x105 - x111 + x113 + x115 + x116  = 0
 c48:  - x128 + x130 + x160 + x165 - x171 + x173 + x175 + x176  = 0
 c49:  - x188 + x190 + x220 + x225 - x231 + x233 + x235 + x236  = 0
 c50:  - x248 + x250 + x280 + x285 - x291 + x293 + x295 + x296  = 1
 c51:  x1 - x3 + x8 + x9 + x13 - x17 - x21 + x25 + x27 + x33 - x37 - x45 - x49
       - x57  = 0
 c52:  x61 - x63 + x68 + x69 + x73 - x77 - x81 + x85 + x87 + x93 - x97 - x105
       - x109 - x117  = -1
 c53:  x121 - x123 + x128 + x129 + x133 - x137 - x141 + x145 + x147 + x153
       - x157 - x165 - x169 - x177  = 1
 c54:  x181 - x183 + x188 + x189 + x193 - x197 - x201 + x205 + x207 + x213
       - x217 - x225 - x229 - x237  = 1
 c55:  x241 - x243 + x248 + x249 + x253 - x257 - x261 + x265 + x267 + x273
       - x277 - x285 - x289 - x297  = 0
 c56:  - x11 + x12 - x29 + x35 - x40  = 0
 c57:  - x71 + x72 - x89 + x95 - x100  = 0
 c58:  - x131 + x132 - x149 + x155 - x160  = 0
 c59:  - x191 + x192 - x209 + x215 - x220  = 0
 c60:  - x251 + x252 - x269 + x275 - x280  = 0
 c61:  - x18 - x23 - x24 + x29 - x35 - x41 + x42 + x50 + x57 + x59 - x60  = 0
 c62:  - x78 - x83 - x84 + x89 - x95 - x101 + x102 + x110 + x117 + x119 - x120
        = 0
 c63:  - x138 - x143 - x144 + x149 - x155 - x161 + x162 + x170 + x177 + x179
       - x180  = -1
 c64:  - x198 - x203 - x204 + x209 - x215 - x221 + x222 + x230 + x237 + x239
       - x240  = -1
 c65:  - x258 - x263 - x264 + x269 - x275 - x281 + x282 + x290 + x297 + x299
       - x300  = 0
 c66:  - x19 - x31 - x39 - x44 + x51 + x58  = 0
 c67:  - x79 - x91 - x99 - x104 + x111 + x118  = 0
 c68:  - x139 - x151 - x159 - x164 + x171 + x178  = 0
 c69:  - x199 - x211 - x219 - x224 + x231 + x238  = 0
 c70:  - x259 - x271 - x279 - x284 + x291 + x298  = 0
 c71:  x5 - x6 - x7 + x14 + x16 + x23 - x25 + x31 - x32 - x38 - x59  = 0
 c72:  x65 - x66 - x67 + x74 + x76 + x83 - x85 + x91 - x92 - x98 - x119  = 0
 c73:  x125 - x126 - x127 + x134 + x136 + x143 - x145 + x151 - x152 - x158
       - x179  = 0
 c74:  x185 - x186 - x187 + x194 + x196 + x203 - x205 + x211 - x212 - x218
       - x239  = 0
 c75:  x245 - x246 - x247 + x254 + x256 + x263 - x265 + x271 - x272 - x278
       - x299  = 0
 c76:  4 x1 + 4 x61 + 4 x121 + 4 x181 + 4 x241 - 2 x301 <= 0
 c77:  4 x2 + 4 x62 + 4 x122 + 4 x182 + 4 x242 - 2 x302 <= 0
 c78:  4 x3 + 4 x63 + 4 x123 + 4 x183 + 4 x243 - 2 x303 <= 0
 c79:  4 x4 + 4 x64 + 4 x124 + 4 x184 + 4 x244 - 2 x304 <= 0
 c80:  4 x5 + 4 x65 + 4 x125 + 4 x185 + 4 x245 - 2 x305 <= 0
 c81:  4 x6 + 4 x66 + 4 x126 + 4 x186 + 4 x246 - 2 x306 <= 0
 c82:  4 x7 + 4 x67 + 4 x127 + 4 x187 + 4 x247 - 2 x307 <= 0
 c83:  4 x8 + 4 x68 + 4 x128 + 4 x188 + 4 x248 - 2 x308 <= 0
 c84:  4 x9 + 4 x69 + 4 x129 + 4 x189 + 4 x249 - 2 x309 <= 0
 c85:  4 x10 + 4 x70 + 4 x130 + 4 x190 + 4 x250 - 2 x310 <= 0
 c86:  4 x11 + 4 x71 + 4 x131 + 4 x191 + 4 x251 - 2 x311 <= 0
 c87:  4 x12 + 4 x72 + 4 x132 + 4 x192 + 4 x252 - 2 x312 <= 0
 c88:  4 x13 + 4 x73 + 4 x133 + 4 x193 + 4 x253 - 2 x313 <= 0
 c89:  4 x14 + 4 x74 + 4 x134 + 4 x194 + 4 x254 - 2 x314 <= 0
 c90:  4 x15 + 4 x75 + 4 x135 + 4 x195 + 4 x255 - 2 x315 <= 0
 c91:  4 x16 + 4 x76 + 4 x136 + 4 x196 + 4 x256 - 2 x316 <= 0
 c92:  4 x17 + 4 x77 + 4 x137 + 4 x197 + 4 x257 - 2 x317 <= 0
 c93:  4 x18 + 4 x78 + 4 x138 + 4 x198 + 4 x258 - 2 x318 <= 0
 c94:  4 x19 + 4 x79 + 4 x139 + 4 x199 + 4 x259 - 2 x319 <= 0
 c95:  4 x20 + 4 x80 + 4 x140 + 4 x200 + 4 x260 - 2 x320 <= 0
 c96:  4 x21 + 4 x81 + 4 x141 + 4 x201 + 4 x261 - 2 x321 <= 0
 c97:  4 x22 + 4 x82 + 4 x142 + 4 x202 + 4 x262 - 2 x322 <= 0
 c98:  4 x23 + 4 x83 + 4 x143 + 4 x203 + 4 x263 - 2 x323 <= 0
 c99:  4 x24 + 4 x84 + 4 x144 + 4 x204 + 4 x264 - 2 x324 <= 0
 c100: 4 x25 + 4 x85 + 4 x145 + 4 x205 + 4 x265 - 2 x325 <= 0
 c101: 4 x26 + 4 x86 + 4 x146 + 4 x206 + 4 x266 - 2 x326 <= 0
 c102: 4 x27 + 4 x87 + 4 x147 + 4 x207 + 4 x267 - 2 x327 <= 0
 c103: 4 x28 + 4 x88 + 4 x148 + 4 x208 + 4 x268 - 2 x328 <= 0
 c104: 4 x29 + 4 x89 + 4 x149 + 4 x209 + 4 x269 - 2 x329 <= 0
 c105: 4 x30 + 4 x90 + 4 x150 + 4 x210 + 4 x270 - 2 x330 <= 0
 c106: 4 x31 + 4 x91 + 4 x151 + 4 x211 + 4 x271 - 2 x331 <= 0
 c107: 4 x32 + 4 x92 + 4 x152 + 4 x212 + 4 x272 - 2 x332 <= 0
 c108: 4 x33 + 4 x93 + 4 x153 + 4 x213 + 4 x273 - 2 x333 <= 0
 c109: 4 x34 + 4 x94 + 4 x154 + 4 x214 + 4 x274 - 2 x334 <= 0
 c110: 4 x35 + 4 x95 + 4 x155 + 4 x215 + 4 x275 - 2 x335 <= 0
 c111: 4 x36 + 4 x96 + 4 x156 + 4 x216 + 4 x276 - 2 x336 <= 0
 c112: 4 x37 + 4 x97 + 4 x157 + 4 x217 + 4 x277 - 2 x337 <= 0
 c113: 4 x38 + 4 x98 + 4 x158 + 4 x218 + 4 x278 - 2 x338 <= 0
 c114: 4 x39 + 4 x99 + 4 x159 + 4 x219 + 4 x279 - 2 x339 <= 0
 c115: 4 x40 + 4 x100 + 4 x160 + 4 x220 + 4 x280 - 2 x340 <= 0
 c116: 4 x41 + 4 x101 + 4 x161 + 4 x221 + 4 x281 - 2 x341 <= 0
 c117: 4 x42 + 4 x102 + 4 x162 + 4 x222 + 4 x282 - 2 x342 <= 0
 c118: 4 x43 + 4 x103 + 4 x163 + 4 x223 + 4 x283 - 2 x343 <= 0
 c119: 4 x44 + 4 x104 + 4 x164 + 4 x224 + 4 x284 - 2 x344 <= 0
 c120: 4 x45 + 4 x105 + 4 x165 + 4 x225 + 4 x285 - 2 x345 <= 0
 c121: 4 x46 + 4 x106 + 4 x166 + 4 x226 + 4 x286 - 2 x346 <= 0
 c122: 4 x47 + 4 x107 + 4 x167 + 4 x227 + 4 x287 - 2 x347 <= 0
 c123: 4 x48 + 4 x108 + 4 x168 + 4 x228 + 4 x288 - 2 x348 <= 0
 c124: 4 x49 + 4 x109 + 4 x169 + 4 x229 + 4 x289 - 2 x349 <= 0
 c125: 4 x50 + 4 x110 + 4 x170 + 4 x230 + 4 x290 - 2 x350 <= 0
 c126: 4 x51 + 4 x111 + 4 x171 + 4 x231 + 4 x291 - 2 x351 <= 0
 c127: 4 x52 + 4 x112 + 4 x172 + 4 x232 + 4 x292 - 2 x352 <= 0
 c128: 4 x53 + 4 x113 + 4 x173 + 4 x233 + 4 x293 - 2 x353 <= 0
 c129: 4 x54 + 4 x114 + 4 x174 + 4 x234 + 4 x294 - 2 x354 <= 0
 c130: 4 x55 + 4 x115 + 4 x175 + 4 x235 + 4 x295 - 2 x355 <= 0
 c131: 4 x56 + 4 x116 + 4 x176 + 4 x236 + 4 x296 - 2 x356 <= 0
 c132: 4 x57 + 4 x117 + 4 x177 + 4 x237 + 4 x297 - 2 x357 <= 0
 c133: 4 x58 + 4 x118 + 4 x178 + 4 x238 + 4 x298 - 2 x358 <= 0
 c134: 4 x59 + 4 x119 + 4 x179 + 4 x239 + 4 x299 - 2 x359 <= 0
 c135: 4 x60 + 4 x120 + 4 x180 + 4 x240 + 4 x300 - 2 x360 <= 0
Bounds
 0 <= x1 <= 1
 0 <= x2 <= 1
 0 <= x3 <= 1
 0 <= x4 <= 1
 0 <= x5 <= 1
 0 <= x6 <= 1
 0 <= x7 <= 1
 0 <= x8 <= 1
 0 <= x9 <= 1
 0 <= x10 <= 1
 0 <= x11 <= 1
 0 <= x12 <= 1
 0 <= x13 <= 1
 0 <= x14 <= 1
 0 <= x15 <= 1
 0 <= x16 <= 1
 0 <= x17 <= 1
 0 <= x18 <= 1
 0 <= x19 <= 1
 0 <= x20 <= 1
 0 <= x21 <= 1
 0 <= x22 <= 1
 0 <= x23 <= 1
 0 <= x24 <= 1
 0 <= x25 <= 1
 0 <= x26 <= 1
 0 <= x27 <= 1
 0 <= x28 <= 1
 0 <= x29 <= 1
 0 <= x30 <= 1
 0 <= x31 <= 1
 0 <= x32 <= 1
 0 <= x33 <= 1
 0 <= x34 <= 1
 0 <= x35 <= 1
 0 <= x36 <= 1
 0 <= x37 <= 1
 0 <= x38 <= 1
 0 <= x39 <= 1
 0 <= x40 <= 1
 0 <= x41 <= 1
 0 <= x42 <= 1
 0 <= x43 <= 1
 0 <= x44 <= 1
 0 <= x45 <= 1
 0 <= x46 <= 1
 0 <= x47 <= 1
 0 <= x48 <= 1
 0 <= x49 <= 1
 0 <= x50 <= 1
 0 <= x51 <= 1
 0 <= x52 <= 1
 0 <= x53 <= 1
 0 <= x54 <= 1
 0 <= x55 <= 1
 0 <= x56 <= 1
 0 <= x57 <= 1
 0 <= x58 <= 1
 0 <= x59 <= 1
 0 <= x60 <= 1
 0 <= x61 <= 1
 0 <= x62 <= 1
 0 <= x63 <= 1
 0 <= x64 <= 1
 0 <= x65 <= 1
 0 <= x66 <= 1
 0 <= x67 <= 1
 0 <= x68 <= 1
 0 <= x69 <= 1
 0 <= x70 <= 1
 0 <= x71 <= 1
 0 <= x72 <= 1
 0 <= x73 <= 1
 0 <= x74 <= 1
 0 <= x75 <= 1
 0 <= x76 <= 1
 0 <= x77 <= 1
 0 <= x78 <= 1
 0 <= x79 <= 1
 0 <= x80 <= 1
 0 <= x81 <= 1
 0 <= x82 <= 1
 0 <= x83 <= 1
 0 <= x84 <= 1
 0 <= x85 <= 1
 0 <= x86 <= 1
 0 <= x87 <= 1
 0 <= x88 <= 1
 0 <= x89 <= 1
 0 <= x90 <= 1
 0 <= x91 <= 1
 0 <= x92 <= 1
 0 <= x93 <= 1
 0 <= x94 <= 1
 0 <= x95 <= 1
 0 <= x96 <= 1
 0 <= x97 <= 1
 0 <= x98 <= 1
 0 <= x99 <= 1
 0 <= x100 <= 1
 0 <= x101 <= 1
 0 <= x102 <= 1
 0 <= x103 <= 1
 0 <= x104 <= 1
 0 <= x105 <= 1
 0 <= x106 <= 1
 0 <= x107 <= 1
 0 <= x108 <= 1
 0 <= x109 <= 1
 0 <= x110 <= 1
 0 <= x111 <= 1
 0 <= x112 <= 1
 0 <= x113 <= 1
 0 <= x114 <= 1
 0 <= x115 <= 1
 0 <= x116 <= 1
 0 <= x117 <= 1
 0 <= x118 <= 1
 0 <= x119 <= 1
 0 <= x120 <= 1
 0 <= x121 <= 1
 0 <= x122 <= 1
 0 <= x123 <= 1
 0 <= x124 <= 1
 0 <= x125 <= 1
 0 <= x126 <= 1
 0 <= x127 <= 1
 0 <= x128 <= 1
 0 <= x129 <= 1
 0 <= x130 <= 1
 0 <= x131 <= 1
 0 <= x132 <= 1
 0 <= x133 <= 1
 0 <= x134 <= 1
 0 <= x135 <= 1
 0 <= x136 <= 1
 0 <= x137 <= 1
 0 <= x138 <= 1
 0 <= x139 <= 1
 0 <= x140 <= 1
 0 <= x141 <= 1
 0 <= x142 <= 1
 0 <= x143 <= 1
 0 <= x144 <= 1
 0 <= x145 <= 1
 0 <= x146 <= 1
 0 <= x147 <= 1
 0 <= x148 <= 1
 0 <= x149 <= 1
 0 <= x150 <= 1
 0 <= x151 <= 1
 0 <= x152 <= 1
 0 <= x153 <= 1
 0 <= x154 <= 1
 0 <= x155 <= 1
 0 <= x156 <= 1
 0 <= x157 <= 1
 0 <= x158 <= 1
 0 <= x159 <= 1
 0 <= x160 <= 1
 0 <= x161 <= 1
 0 <= x162 <= 1
 0 <= x163 <= 1
 0 <= x164 <= 1
 0 <= x165 <= 1
 0 <= x166 <= 1
 0 <= x167 <= 1
 0 <= x168 <= 1
 0 <= x169 <= 1
 0 <= x170 <= 1
 0 <= x171 <= 1
 0 <= x172 <= 1
 0 <= x173 <= 1
 0 <= x174 <= 1
 0 <= x175 <= 1
 0 <= x176 <= 1
 0 <= x177 <= 1
 0 <= x178 <= 1
 0 <= x179 <= 1
 0 <= x180 <= 1
 0 <= x181 <= 1
 0 <= x182 <= 1
 0 <= x183 <= 1
 0 <= x184 <= 1
 0 <= x185 <= 1
 0 <= x186 <= 1
 0 <= x187 <= 1
 0 <= x188 <= 1
 0 <= x189 <= 1
 0 <= x190 <= 1
 0 <= x191 <= 1
 0 <= x192 <= 1
 0 <= x193 <= 1
 0 <= x194 <= 1
 0 <= x195 <= 1
 0 <= x196 <= 1
 0 <= x197 <= 1
 0 <= x198 <= 1
 0 <= x199 <= 1
 0 <= x200 <= 1
 0 <= x201 <= 1
 0 <= x202 <= 1
 0 <= x203 <= 1
 0 <= x204 <= 1
 0 <= x205 <= 1
 0 <= x206 <= 1
 0 <= x207 <= 1
 0 <= x208 <= 1
 0 <= x209 <= 1
 0 <= x210 <= 1
 0 <= x211 <= 1
 0 <= x212 <= 1
 0 <= x213 <= 1
 0 <= x214 <= 1
 0 <= x215 <= 1
 0 <= x216 <= 1
 0 <= x217 <= 1
 0 <= x218 <= 1
 0 <= x219 <= 1
 0 <= x220 <= 1
 0 <= x221 <= 1
 0 <= x222 <= 1
 0 <= x223 <= 1
 0 <= x224 <= 1
 0 <= x225 <= 1
 0 <= x226 <= 1
 0 <= x227 <= 1
 0 <= x228 <= 1
 0 <= x229 <= 1
 0 <= x230 <= 1
 0 <= x231 <= 1
 0 <= x232 <= 1
 0 <= x233 <= 1
 0 <= x234 <= 1
 0 <= x235 <= 1
 0 <= x236 <= 1
 0 <= x237 <= 1
 0 <= x238 <= 1
 0 <= x239 <= 1
 0 <= x240 <= 1
 0 <= x241 <= 1
 0 <= x242 <= 1
 0 <= x243 <= 1
 0 <= x244 <= 1
 0 <= x245 <= 1
 0 <= x246 <= 1
 0 <= x247 <= 1
 0 <= x248 <= 1
 0 <= x249 <= 1
 0 <= x250 <= 1
 0 <= x251 <= 1
 0 <= x252 <= 1
 0 <= x253 <= 1
 0 <= x254 <= 1
 0 <= x255 <= 1
 0 <= x256 <= 1
 0 <= x257 <= 1
 0 <= x258 <= 1
 0 <= x259 <= 1
 0 <= x260 <= 1
 0 <= x261 <= 1
 0 <= x262 <= 1
 0 <= x263 <= 1
 0 <= x264 <= 1
 0 <= x265 <= 1
 0 <= x266 <= 1
 0 <= x267 <= 1
 0 <= x268 <= 1
 0 <= x269 <= 1
 0 <= x270 <= 1
 0 <= x271 <= 1
 0 <= x272 <= 1
 0 <= x273 <= 1
 0 <= x274 <= 1
 0 <= x275 <= 1
 0 <= x276 <= 1
 0 <= x277 <= 1
 0 <= x278 <= 1
 0 <= x279 <= 1
 0 <= x280 <= 1
 0 <= x281 <= 1
 0 <= x282 <= 1
 0 <= x283 <= 1
 0 <= x284 <= 1
 0 <= x285 <= 1
 0 <= x286 <= 1
 0 <= x287 <= 1
 0 <= x288 <= 1
 0 <= x289 <= 1
 0 <= x290 <= 1
 0 <= x291 <= 1
 0 <= x292 <= 1
 0 <= x293 <= 1
 0 <= x294 <= 1
 0 <= x295 <= 1
 0 <= x296 <= 1
 0 <= x297 <= 1
 0 <= x298 <= 1
 0 <= x299 <= 1
 0 <= x300 <= 1
 0 <= x301 <= 1
 0 <= x302 <= 1
 0 <= x303 <= 1
 0 <= x304 <= 1
 0 <= x305 <= 1
 0 <= x306 <= 1
 0 <= x307 <= 1
 0 <= x308 <= 1
 0 <= x309 <= 1
 0 <= x310 <= 1
 0 <= x311 <= 1
 0 <= x312 <= 1
 0 <= x313 <= 1
 0 <= x314 <= 1
 0 <= x315 <= 1
 0 <= x316 <= 1
 0 <= x317 <= 1
 0 <= x318 <= 1
 0 <= x319 <= 1
 0 <= x320 <= 1
 0 <= x321 <= 1
 0 <= x322 <= 1
 0 <= x323 <= 1
 0 <= x324 <= 1
 0 <= x325 <= 1
 0 <= x326 <= 1
 0 <= x327 <= 1
 0 <= x328 <= 1
 0 <= x329 <= 1
 0 <= x330 <= 1
 0 <= x331 <= 1
 0 <= x332 <= 1
 0 <= x333 <= 1
 0 <= x334 <= 1
 0 <= x335 <= 1
 0 <= x336 <= 1
 0 <= x337 <= 1
 0 <= x338 <= 1
 0 <= x339 <= 1
 0 <= x340 <= 1
 0 <= x341 <= 1
 0 <= x342 <= 1
 0 <= x343 <= 1
 0 <= x344 <= 1
 0 <= x345 <= 1
 0 <= x346 <= 1
 0 <= x347 <= 1
 0 <= x348 <= 1
 0 <= x349 <= 1
 0 <= x350 <= 1
 0 <= x351 <= 1
 0 <= x352 <= 1
 0 <= x353 <= 1
 0 <= x354 <= 1
 0 <= x355 <= 1
 0 <= x356 <= 1
 0 <= x357 <= 1
 0 <= x358 <= 1
 0 <= x359 <= 1
 0 <= x360 <= 1
Binaries
 x301  x302  x303  x304  x305  x306  x307  x308  x309  x310  x311  x312  x313 
 x314  x315  x316  x317  x318  x319  x320  x321  x322  x323  x324  x325  x326 
 x327  x328  x329  x330  x331  x332  x333  x334  x335  x336  x337  x338  x339 
 x340  x341  x342  x343  x344  x345  x346  x347  x348  x349  x350  x351  x352 
 x353  x354  x355  x356  x357  x358  x359  x360 
End
